<instance format="XCSP3" type="CSP">
  <variables>
    <var id="x0"> 1 9 11 14 </var>
    <var id="x1"> 1 2 10 12 </var>
    <var id="x2"> 2 9 11 </var>
    <var id="x3"> 2 10 12 </var>
    <var id="x4"> 2 9..11 </var>
    <var id="x5"> 2 9 11 12 14 </var>
    <var id="x6"> 1 2 9 10 </var>
    <var id="x7"> 0 1 6 11 </var>
    <var id="x8"> 1 2 13 </var>
    <var id="x9"> 1 3 11 </var>
    <var id="x10"> 1 6 11 </var>
    <var id="x11"> 1 2 6 13 </var>
    <var id="x12"> 2 3 6 </var>
    <var id="x13"> 0..3 </var>
    <var id="x14"> 1 7 9 14 </var>
    <var id="x15"> 0 1 3 7 </var>
    <var id="x16"> 1 3 5 </var>
    <var id="x17"> 0 3 9 </var>
    <var id="x18"> 3 5 </var>
    <var id="x19"> 0 9 14 </var>
    <var id="x20"> 0 1 3 5 7 9 </var>
    <var id="x21"> 1 7 9 14 </var>
    <var id="x22"> 1 2 7 12 14 </var>
    <var id="x23"> 1 2 7 9 12 14 </var>
    <var id="x24"> 1 7 </var>
    <var id="x25"> 1 6 7 12 14 </var>
    <var id="x26"> 2 8 9 </var>
    <var id="x27"> 2 7..9 </var>
    <var id="x28"> 1 6 12 </var>
    <var id="x29"> 9..11 </var>
    <var id="x30"> 7 12 14 </var>
    <var id="x31"> 7 9 12 14 </var>
    <var id="x32"> 7 10 12 </var>
    <var id="x33"> 5 10 12 </var>
    <var id="x34"> 5 7 9 10 </var>
    <var id="x35"> 10 11 </var>
    <var id="x36"> 1 4 5 9 </var>
    <var id="x37"> 1 6 8..10 </var>
    <var id="x38"> 1 </var>
    <var id="x39"> 1 6 10 </var>
    <var id="x40"> 1 5 6 10 </var>
    <var id="x41"> 1 5 9 10 </var>
    <var id="x42"> 1 8 10 </var>
    <var id="x43"> 2 7 </var>
    <var id="x44"> 3 5 10 11 </var>
    <var id="x45"> 5 7 11 </var>
    <var id="x46"> 2 3 7 10 11 </var>
    <var id="x47"> 3 5 10 </var>
    <var id="x48"> 0 2 11 </var>
    <var id="x49"> 0 2 3 10 11 </var>
    <var id="x50"> 1 9 14 </var>
    <var id="x51"> 0 1 6 9 </var>
    <var id="x52"> 1 2 9 14 </var>
    <var id="x53"> 0 1 3 </var>
    <var id="x54"> 2 3 6 </var>
    <var id="x55"> 0 2 9 14 </var>
    <var id="x56"> 0..3 9 </var>
    <var id="x57"> 0..2 12 </var>
    <var id="x58"> 0 1 10 11 13 </var>
    <var id="x59"> 1 10..12 </var>
    <var id="x60"> 1 11 12 </var>
    <var id="x61"> 1 2 10 12 13 </var>
    <var id="x62"> 2 10 11 </var>
    <var id="x63"> 0..2 10 11 </var>
    <var id="x64"> 0 6 11 </var>
    <var id="x65"> 0 2 3 </var>
    <var id="x66"> 6 11 </var>
    <var id="x67"> 2 6 13 </var>
    <var id="x68"> 0 2 3 11 13 </var>
    <var id="x69"> 2..4 6 </var>
    <var id="x70"> 3 6 13 </var>
    <var id="x71"> 1 7 11 </var>
    <var id="x72"> 1 3 7 10 11 13 </var>
    <var id="x73"> 1 7 11 </var>
    <var id="x74"> 3 10 </var>
    <var id="x75"> 3 7 8 10 11 </var>
    <var id="x76"> 1 3 10 13 </var>
    <var id="x77"> 1 3 8 10 11 </var>
    <var id="x78"> 1 8 10 </var>
    <var id="x79"> 1..3 7 12 </var>
    <var id="x80"> 1 3 7 10 </var>
    <var id="x81"> 1 3 10 12 </var>
    <var id="x82"> 2 3 8 </var>
    <var id="x83"> 2 3 7 8 10 </var>
    <var id="x84"> 1..3 7 10 </var>
    <var id="x85"> 1 5 11 </var>
    <var id="x86"> 0 1 8 11 </var>
    <var id="x87"> 0 3 8 11 </var>
    <var id="x88"> 1 3 5 12 </var>
    <var id="x89"> 0 8 11 12 </var>
    <var id="x90"> 0 1 3 5 </var>
    <var id="x91"> 0 1 3 8 11 </var>
    <var id="x92"> 4 5 7 11 </var>
    <var id="x93"> 2 7 12 </var>
    <var id="x94"> 7 10 11 </var>
    <var id="x95"> 4 5 10..12 </var>
    <var id="x96"> 2 7 10 12 </var>
    <var id="x97"> 2 11 12 </var>
    <var id="x98"> 2 10 11 </var>
    <var id="x99"> 1 3 7 12 </var>
    <var id="x100"> 1 3 10 12 </var>
    <var id="x101"> 1 7 12 </var>
    <var id="x102"> 3 9 13 </var>
    <var id="x103"> 3 7 9 10 </var>
    <var id="x104"> 1 3 10 12 13 </var>
    <var id="x105"> 9 12 </var>
  </variables>
  <constraints>
    <group>
      <allDifferent> %... </allDifferent>
      <args> x0 x1 x2 x3 x4 x5 x6 </args>
      <args> x7 x8 x9 x10 x11 x12 x13 </args>
      <args> x14 x15 x16 x17 x18 x19 x20 </args>
      <args> x21 x22 x23 x24 x25 x26 x27 x28 </args>
      <args> x29 x30 x31 x32 x33 x34 x35 </args>
      <args> x36 x37 x38 x39 x40 x41 x42 </args>
      <args> x43 x44 x45 x46 x47 x48 x49 </args>
      <args> x50 x51 x52 x53 x54 x55 x56 </args>
      <args> x57 x58 x59 x60 x61 x62 x63 </args>
      <args> x64 x65 x66 x67 x68 x69 x70 </args>
      <args> x71 x72 x73 x74 x75 x76 x77 </args>
      <args> x78 x79 x80 x81 x82 x83 x84 </args>
      <args> x85 x86 x87 x88 x89 x90 x91 </args>
      <args> x92 x93 x94 x95 x96 x97 x98 </args>
      <args> x99 x100 x101 x102 x103 x104 x105 </args>
      <args> x0 x21 x36 x50 x71 x85 x92 </args>
      <args> x7 x29 x37 x51 x64 x78 x86 </args>
      <args> x22 x30 x38 x57 x65 x79 x99 </args>
      <args> x8 x14 x23 x31 x43 x52 x93 </args>
      <args> x15 x24 x53 x58 x72 x80 x94 </args>
      <args> x9 x16 x44 x59 x81 x95 x100 </args>
      <args> x10 x25 x45 x60 x66 x73 x101 </args>
      <args> x1 x11 x32 x39 x61 x67 x96 </args>
      <args> x2 x17 x26 x68 x82 x87 x102 </args>
      <args> x3 x12 x18 x33 x54 x69 x74 </args>
      <args> x4 x27 x46 x62 x75 x83 x103 </args>
      <args> x28 x40 x47 x70 x76 x88 x104 </args>
      <args> x5 x19 x48 x55 x89 x97 x105 </args>
      <args> x6 x13 x20 x34 x41 x56 x84 x90 </args>
      <args> x35 x42 x49 x63 x77 x91 x98 </args>
    </group>
  </constraints>
</instance>

